100 1000
26 71
59 34
30 82
19 23
66 1
85 88
94 12
8 57
3 10
44 68
5 5
1 33
41 37
82 69
76 98
1 24
12 26
81 83
73 16
32 26
74 18
54 43
62 52
41 71
19 22
10 65
65 68
53 8
56 40
53 40
70 24
66 72
58 16
22 34
72 10
33 19
96 28
88 13
68 34
45 98
44 29
61 31
78 79
78 33
6 60
66 74
11 44
59 56
83 54
48 17
52 63
7 83
51 100
37 54
89 10
72 5
23 79
52 42
55 65
44 93
57 52
45 64
11 85
90 68
31 54
38 62
48 29
75 40
56 35
64 90
73 47
66 77
35 87
50 75
16 39
51 18
33 38
58 25
85 61
77 13
71 36
87 53
69 46
52 28
10 44
13 34
39 39
75 69
38 42
13 97
90 34
35 83
83 8
93 74
61 38
62 74
95 22
73 40
26 7
85 94
